matrix = [|
  10, 70, 1, 18, 16, 2, 30, 23, 34, 8, 4, 24, 26, 25, 1, 17, 5, 22, 11, 27, 10, 33, 31, 20, 0, 0, 0, 0, 0, 0, 0, 0, 0, 0, 0 |
  3, 50, 1, 10, 11, 24, 29, 26, 15, 16, 2, 5, 33, 4, 27, 22, 34, 23, 20, 1, 0, 0, 0, 0, 0, 0, 0, 0, 0, 0, 0, 0, 0, 0, 0 |
  3, 50, 1, 31, 20, 27, 29, 34, 9, 5, 4, 33, 6, 15, 18, 13, 25, 2, 16, 1, 0, 0, 0, 0, 0, 0, 0, 0, 0, 0, 0, 0, 0, 0, 0 |
  4, 48, 1, 9, 19, 34, 15, 10, 18, 23, 27, 5, 22, 0, 0, 0, 0, 0, 0, 0, 0, 0, 0, 0, 0, 0, 0, 0, 0, 0, 0, 0, 0, 0, 0 |
  1, 73, 0, 35, 22, 1, 18, 31, 12, 30, 2, 0, 0, 0, 0, 0, 0, 0, 0, 0, 0, 0, 0, 0, 0, 0, 0, 0, 0, 0, 0, 0, 0, 0, 0 |
  2, 41, 1, 30, 1, 22, 13, 25, 6, 23, 34, 27, 24, 15, 3, 20, 26, 10, 16, 4, 8, 29, 0, 0, 0, 0, 0, 0, 0, 0, 0, 0, 0, 0, 0 |
  1, 71, 1, 13, 19, 8, 20, 1, 31, 30, 6, 17, 34, 11, 32, 23, 0, 0, 0, 0, 0, 0, 0, 0, 0, 0, 0, 0, 0, 0, 0, 0, 0, 0, 0 |
  3, 51, 1, 4, 6, 11, 18, 17, 16, 25, 1, 3, 15, 12, 26, 13, 27, 0, 0, 0, 0, 0, 0, 0, 0, 0, 0, 0, 0, 0, 0, 0, 0, 0, 0 |
  4, 78, 1, 15, 5, 13, 10, 29, 24, 4, 30, 11, 23, 3, 0, 0, 0, 0, 0, 0, 0, 0, 0, 0, 0, 0, 0, 0, 0, 0, 0, 0, 0, 0, 0 |
  8, 65, 1, 3, 31, 15, 34, 11, 13, 23, 4, 0, 0, 0, 0, 0, 0, 0, 0, 0, 0, 0, 0, 0, 0, 0, 0, 0, 0, 0, 0, 0, 0, 0, 0 |
  1, 45, 0, 22, 17, 34, 31, 3, 12, 13, 5, 16, 14, 4, 18, 8, 20, 28, 25, 19, 0, 0, 0, 0, 0, 0, 0, 0, 0, 0, 0, 0, 0, 0, 0 |
  3, 41, 1, 20, 27, 5, 29, 17, 10, 25, 11, 30, 9, 32, 18, 19, 1, 33, 13, 31, 0, 0, 0, 0, 0, 0, 0, 0, 0, 0, 0, 0, 0, 0, 0 |
  3, 49, 1, 15, 31, 17, 9, 19, 29, 5, 26, 18, 10, 25, 20, 30, 23, 34, 2, 3, 13, 8, 4, 22, 0, 0, 0, 0, 0, 0, 0, 0, 0, 0, 0 |
  3, 78, 0, 27, 34, 5, 30, 22, 18, 9, 32, 8, 11, 1, 17, 13, 21, 23, 35, 20, 4, 6, 3, 0, 0, 0, 0, 0, 0, 0, 0, 0, 0, 0, 0 |
  2, 54, 1, 29, 22, 20, 25, 12, 15, 16, 13, 33, 5, 6, 0, 0, 0, 0, 0, 0, 0, 0, 0, 0, 0, 0, 0, 0, 0, 0, 0, 0, 0, 0, 0 |
  1, 71, 0, 16, 17, 6, 14, 21, 32, 1, 27, 5, 25, 26, 18, 15, 23, 8, 24, 4, 0, 0, 0, 0, 0, 0, 0, 0, 0, 0, 0, 0, 0, 0, 0 |
  2, 54, 1, 10, 18, 25, 6, 16, 30, 5, 24, 8, 11, 0, 0, 0, 0, 0, 0, 0, 0, 0, 0, 0, 0, 0, 0, 0, 0, 0, 0, 0, 0, 0, 0 |
  1, 42, 1, 8, 18, 22, 17, 16, 10, 12, 25, 27, 23, 24, 19, 32, 15, 31, 34, 20, 9, 11, 3, 0, 0, 0, 0, 0, 0, 0, 0, 0, 0, 0, 0 |
  3, 55, 1, 24, 19, 11, 16, 18, 22, 17, 2, 30, 4, 15, 0, 0, 0, 0, 0, 0, 0, 0, 0, 0, 0, 0, 0, 0, 0, 0, 0, 0, 0, 0, 0 |
  5, 59, 0, 6, 16, 11, 32, 12, 10, 25, 23, 26, 31, 19, 28, 0, 0, 0, 0, 0, 0, 0, 0, 0, 0, 0, 0, 0, 0, 0, 0, 0, 0, 0, 0 |
  5, 44, 1, 31, 20, 25, 1, 16, 29, 6, 2, 18, 12, 0, 0, 0, 0, 0, 0, 0, 0, 0, 0, 0, 0, 0, 0, 0, 0, 0, 0, 0, 0, 0, 0 |
  7, 49, 0, 29, 8, 19, 1, 31, 16, 3, 23, 20, 4, 5, 7, 6, 0, 0, 0, 0, 0, 0, 0, 0, 0, 0, 0, 0, 0, 0, 0, 0, 0, 0, 0 |
  2, 41, 1, 24, 27, 4, 23, 25, 2, 8, 13, 5, 33, 12, 26, 30, 0, 0, 0, 0, 0, 0, 0, 0, 0, 0, 0, 0, 0, 0, 0, 0, 0, 0, 0 |
  9, 41, 1, 5, 8, 22, 17, 2, 11, 4, 20, 13, 24, 31, 0, 0, 0, 0, 0, 0, 0, 0, 0, 0, 0, 0, 0, 0, 0, 0, 0, 0, 0, 0, 0 |
  1, 65, 1, 23, 29, 16, 12, 9, 33, 34, 30, 1, 26, 15, 4, 5, 18, 25, 19, 0, 0, 0, 0, 0, 0, 0, 0, 0, 0, 0, 0, 0, 0, 0, 0 |
  3, 73, 1, 4, 23, 24, 13, 33, 27, 15, 18, 2, 10, 30, 8, 11, 6, 12, 3, 5, 0, 0, 0, 0, 0, 0, 0, 0, 0, 0, 0, 0, 0, 0, 0 |
  4, 69, 1, 5, 16, 25, 8, 23, 24, 27, 22, 32, 31, 15, 26, 12, 17, 13, 10, 19, 11, 30, 2, 0, 0, 0, 0, 0, 0, 0, 0, 0, 0, 0, 0 |
  1, 79, 0, 13, 6, 5, 17, 9, 21, 33, 8, 18, 11, 22, 15, 0, 0, 0, 0, 0, 0, 0, 0, 0, 0, 0, 0, 0, 0, 0, 0, 0, 0, 0, 0 |
  2, 63, 1, 24, 16, 5, 3, 25, 8, 34, 30, 26, 33, 17, 9, 18, 6, 22, 1, 29, 0, 0, 0, 0, 0, 0, 0, 0, 0, 0, 0, 0, 0, 0, 0 |
  1, 44, 1, 9, 26, 18, 6, 33, 4, 31, 23, 5, 1, 16, 30, 24, 2, 10, 34, 8, 19, 32, 27, 3, 0, 0, 0, 0, 0, 0, 0, 0, 0, 0, 0 |
  10, 66, 1, 16, 5, 12, 11, 9, 15, 30, 1, 4, 10, 3, 0, 0, 0, 0, 0, 0, 0, 0, 0, 0, 0, 0, 0, 0, 0, 0, 0, 0, 0, 0, 0 |
  3, 68, 1, 8, 11, 9, 5, 32, 1, 29, 34, 22, 16, 12, 18, 0, 0, 0, 0, 0, 0, 0, 0, 0, 0, 0, 0, 0, 0, 0, 0, 0, 0, 0, 0 |
  3, 77, 0, 22, 2, 6, 23, 28, 26, 27, 1, 9, 29, 16, 13, 34, 12, 33, 35, 11, 19, 20, 24, 0, 0, 0, 0, 0, 0, 0, 0, 0, 0, 0, 0 |
  7, 46, 0, 9, 30, 19, 31, 16, 18, 5, 6, 23, 12, 0, 0, 0, 0, 0, 0, 0, 0, 0, 0, 0, 0, 0, 0, 0, 0, 0, 0, 0, 0, 0, 0 |
  8, 70, 0, 26, 19, 27, 12, 20, 28, 16, 13, 29, 9, 0, 0, 0, 0, 0, 0, 0, 0, 0, 0, 0, 0, 0, 0, 0, 0, 0, 0, 0, 0, 0, 0 |
  5, 49, 0, 30, 33, 17, 26, 27, 21, 23, 3, 18, 32, 13, 8, 25, 5, 31, 28, 10, 14, 16, 19, 15, 0, 0, 0, 0, 0, 0, 0, 0, 0, 0, 0 |
  7, 49, 1, 32, 17, 12, 8, 16, 4, 31, 33, 5, 30, 3, 2, 6, 18, 27, 0, 0, 0, 0, 0, 0, 0, 0, 0, 0, 0, 0, 0, 0, 0, 0, 0 |
  5, 62, 0, 9, 8, 35, 32, 29, 11, 6, 20, 28, 1, 10, 13, 19, 33, 25, 15, 0, 0, 0, 0, 0, 0, 0, 0, 0, 0, 0, 0, 0, 0, 0, 0 |
  1, 63, 1, 2, 26, 17, 30, 12, 8, 16, 1, 20, 3, 9, 29, 0, 0, 0, 0, 0, 0, 0, 0, 0, 0, 0, 0, 0, 0, 0, 0, 0, 0, 0, 0 |
  3, 44, 0, 14, 30, 13, 1, 25, 20, 16, 23, 17, 3, 26, 27, 7, 18, 11, 2, 5, 12, 8, 4, 0, 0, 0, 0, 0, 0, 0, 0, 0, 0, 0, 0 |
|];
